param W_CLASS:=
1 0.0042025845063681875
2 -0.02153117457567788
3 0
4 -1.531048192328151
5 -2.2754646070980993
6 0.15484577252548695
7 -0.12443105792675514
8 -0.033365524834216544
9 0.005844895646581849
10 0
11 0.029560423112123403
12 4.3326897698125775
13 0
14 0
15 0
16 -0.22972574125783418
17 -4.428210772367997
18 -18.498358726138573
19 -3.378766487774276;

param B_CLASS:= -0.8707997709745918 ;